;--------------------------------------------------------------------------
; Benchmark created with Zazu
; Benchmark: 		euclidex_norm_inv1_2xlen3
; Created:   		2022-01-11 18:12
; Generator of the ideal: 
; 		 -q*r + p*s - p00*s00 + q00*r00
; 		 -b*r - a00*s00 + a*s + b00*r00
; 		 -a*q + a00*q00 - b00*p00 + b*p
; 		 -b00*p*r00 - a*p00*s00 + b00*p00*r + a*q00*r00 + a00*p*s00 - a00*q00*r
; 		 b*q00*r00 + b00*p00*s - b00*q*r00 - b*p00*s00 + a00*q*s00 - a00*q00*s
; Testing invariant: a^2*b^6*p^4*q^2*q00*r^5*r00 - a^3*b^3*p^3*q^3*r^4*s^3 - a*b^5*p^4*q^3*r^2*s^4 - a^3*b^4*p^3*q^3*r^4*s^3 - a^3*b^4*p^2*q^3*q00*r^4*r00*s^2 + a^4*b*p*p00*q*r*s^3*s00 + a^2*b^3*p*q^4*q00*r*r00*s^5 - a^2*b^2*p*q^5*r^2*s^5 + a^2*b^3*p^2*q^4*r*s^6 + a^4*p*q^2*r^2*s^3 + a^2*b^2*p*q^4*q00*r*r00*s^5 + a*b^5*p^3*p00*q^3*r^2*s^3*s00 - a^2*b^6*p^4*p00*q^2*r^5*s00 - a^2*b^6*p^4*q^3*r^6 + a^3*b^3*p^4*r^2*s^2 + a^3*b^3*p^2*q^4*r^5*s^2 + a^3*b^3*p^3*q00*r^2*r00*s + a^3*b^3*p^2*p00*q^3*r^4*s^2*s00 - a^2*b^3*p*p00*q^4*r*s^5*s00 + a^3*b^4*p^2*q^4*r^5*s^2 - a*b^5*p^3*q^3*q00*r^2*r00*s^3 - a^3*b^3*p^3*p00*r^2*s*s00 - a^2*b^2*p*p00*q^4*r*s^5*s00 + a*b^5*p^3*q^4*r^3*s^3 - a^3*b^3*p^3*q*r^3*s - a^4*p^2*q*r*s^4 - a^2*b^3*p*q^5*r^2*s^5 + a^2*b^6*p^5*q^2*r^5*s + a^3*b^4*p^2*p00*q^3*r^4*s^2*s00 - a^4*p*q*q00*r*r00*s^3 + a^2*b^2*p^2*q^4*r*s^6 + a^4*b*p*q^2*r^2*s^3 - a^4*b*p*q*q00*r*r00*s^3 - a^4*b*p^2*q*r*s^4 + a^4*p*p00*q*r*s^3*s00 - a^3*b^3*p^2*q^3*q00*r^4*r00*s^2
;--------------------------------------------------------------------------

(set-logic NIA)
(set-option :produce-proofs true)

(declare-const p00 Int)
(declare-const a00 Int)
(declare-const q00 Int)
(declare-const b00 Int)
(declare-const r00 Int)
(declare-const s00 Int)

(assert 
	(exists
		((p Int) (a Int) (q Int) (b Int) (r Int) (s Int))
		(and
			(= (+ (- (+ (* (- 1) q r) (* p s)) (* p00 s00)) (* q00 r00)) 0)
			(= (+ (- (* (- 1) b r) (* a00 s00)) (* a s) (* b00 r00)) 0)
			(= (+ (- (+ (* (- 1) a q) (* a00 q00)) (* b00 p00)) (* b p)) 0)
			(= (- (+ (- (* (- 1) b00 p r00) (* a p00 s00)) (* b00 p00 r) (* a q00 r00) (* a00 p s00)) (* a00 q00 r)) 0)
			(= (- (+ (- (+ (* b q00 r00) (* b00 p00 s)) (* b00 q r00) (* b p00 s00)) (* a00 q s00)) (* a00 q00 s)) 0)

			(or
				(not (= (- (+ (- (+ (- (+ (- (+ (- (+ (- (+ (- (+ (- (+ (- (* (- a b) (- a b) b b b b b b (- p q) (- p q) (- p q) (- p q) q q q00 (- r s) (- r s) (- r s) (- r s) (- r s) r00) (* (- a b) (- a b) (- a b) b b b (- p q) (- p q) (- p q) q q q (- r s) (- r s) (- r s) (- r s) s s s) (* (- a b) b b b b b (- p q) (- p q) (- p q) (- p q) q q q (- r s) (- r s) s s s s) (* (- a b) (- a b) (- a b) b b b b (- p q) (- p q) (- p q) q q q (- r s) (- r s) (- r s) (- r s) s s s) (* (- a b) (- a b) (- a b) b b b b (- p q) (- p q) q q q q00 (- r s) (- r s) (- r s) (- r s) r00 s s)) (* (- a b) (- a b) (- a b) (- a b) b (- p q) p00 q (- r s) s s s s00) (* (- a b) (- a b) b b b (- p q) q q q q q00 (- r s) r00 s s s s s)) (* (- a b) (- a b) b b (- p q) q q q q q (- r s) (- r s) s s s s s)) (* (- a b) (- a b) b b b (- p q) (- p q) q q q q (- r s) s s s s s s) (* (- a b) (- a b) (- a b) (- a b) (- p q) q q (- r s) (- r s) s s s) (* (- a b) (- a b) b b (- p q) q q q q q00 (- r s) r00 s s s s s) (* (- a b) b b b b b (- p q) (- p q) (- p q) p00 q q q (- r s) (- r s) s s s s00)) (* (- a b) (- a b) b b b b b b (- p q) (- p q) (- p q) (- p q) p00 q q (- r s) (- r s) (- r s) (- r s) (- r s) s00) (* (- a b) (- a b) b b b b b b (- p q) (- p q) (- p q) (- p q) q q q (- r s) (- r s) (- r s) (- r s) (- r s) (- r s))) (* (- a b) (- a b) (- a b) b b b (- p q) (- p q) (- p q) (- p q) (- r s) (- r s) s s) (* (- a b) (- a b) (- a b) b b b (- p q) (- p q) q q q q (- r s) (- r s) (- r s) (- r s) (- r s) s s) (* (- a b) (- a b) (- a b) b b b (- p q) (- p q) (- p q) q00 (- r s) (- r s) r00 s) (* (- a b) (- a b) (- a b) b b b (- p q) (- p q) p00 q q q (- r s) (- r s) (- r s) (- r s) s s s00)) (* (- a b) (- a b) b b b (- p q) p00 q q q q (- r s) s s s s s s00)) (* (- a b) (- a b) (- a b) b b b b (- p q) (- p q) q q q q (- r s) (- r s) (- r s) (- r s) (- r s) s s)) (* (- a b) b b b b b (- p q) (- p q) (- p q) q q q q00 (- r s) (- r s) r00 s s s) (* (- a b) (- a b) (- a b) b b b (- p q) (- p q) (- p q) p00 (- r s) (- r s) s s00) (* (- a b) (- a b) b b (- p q) p00 q q q q (- r s) s s s s s s00)) (* (- a b) b b b b b (- p q) (- p q) (- p q) q q q q (- r s) (- r s) (- r s) s s s)) (* (- a b) (- a b) (- a b) b b b (- p q) (- p q) (- p q) q (- r s) (- r s) (- r s) s) (* (- a b) (- a b) (- a b) (- a b) (- p q) (- p q) q (- r s) s s s s) (* (- a b) (- a b) b b b (- p q) q q q q q (- r s) (- r s) s s s s s)) (* (- a b) (- a b) b b b b b b (- p q) (- p q) (- p q) (- p q) (- p q) q q (- r s) (- r s) (- r s) (- r s) (- r s) s) (* (- a b) (- a b) (- a b) b b b b (- p q) (- p q) p00 q q q (- r s) (- r s) (- r s) (- r s) s s s00)) (* (- a b) (- a b) (- a b) (- a b) (- p q) q q00 (- r s) r00 s s s)) (* (- a b) (- a b) b b (- p q) (- p q) q q q q (- r s) s s s s s s) (* (- a b) (- a b) (- a b) (- a b) b (- p q) q q (- r s) (- r s) s s s)) (* (- a b) (- a b) (- a b) (- a b) b (- p q) q q00 (- r s) r00 s s s) (* (- a b) (- a b) (- a b) (- a b) b (- p q) (- p q) q (- r s) s s s s)) (* (- a b) (- a b) (- a b) (- a b) (- p q) p00 q (- r s) s s s s00)) (* (- a b) (- a b) (- a b) b b b (- p q) (- p q) q q q q00 (- r s) (- r s) (- r s) (- r s) r00 s s)) 0))
				(not (= (- (+ (- (+ (- (+ (- (+ (- (+ (- (+ (- (+ (- (+ (- (* a a (- b a) (- b a) (- b a) (- b a) (- b a) (- b a) p p p p (- q p) (- q p) q00 r r r r r r00) (* a a a (- b a) (- b a) (- b a) p p p (- q p) (- q p) (- q p) r r r r (- s r) (- s r) (- s r)) (* a (- b a) (- b a) (- b a) (- b a) (- b a) p p p p (- q p) (- q p) (- q p) r r (- s r) (- s r) (- s r) (- s r)) (* a a a (- b a) (- b a) (- b a) (- b a) p p p (- q p) (- q p) (- q p) r r r r (- s r) (- s r) (- s r)) (* a a a (- b a) (- b a) (- b a) (- b a) p p (- q p) (- q p) (- q p) q00 r r r r r00 (- s r) (- s r))) (* a a a a (- b a) p p00 (- q p) r (- s r) (- s r) (- s r) s00) (* a a (- b a) (- b a) (- b a) p (- q p) (- q p) (- q p) (- q p) q00 r r00 (- s r) (- s r) (- s r) (- s r) (- s r))) (* a a (- b a) (- b a) p (- q p) (- q p) (- q p) (- q p) (- q p) r r (- s r) (- s r) (- s r) (- s r) (- s r))) (* a a (- b a) (- b a) (- b a) p p (- q p) (- q p) (- q p) (- q p) r (- s r) (- s r) (- s r) (- s r) (- s r) (- s r)) (* a a a a p (- q p) (- q p) r r (- s r) (- s r) (- s r)) (* a a (- b a) (- b a) p (- q p) (- q p) (- q p) (- q p) q00 r r00 (- s r) (- s r) (- s r) (- s r) (- s r)) (* a (- b a) (- b a) (- b a) (- b a) (- b a) p p p p00 (- q p) (- q p) (- q p) r r (- s r) (- s r) (- s r) s00)) (* a a (- b a) (- b a) (- b a) (- b a) (- b a) (- b a) p p p p p00 (- q p) (- q p) r r r r r s00) (* a a (- b a) (- b a) (- b a) (- b a) (- b a) (- b a) p p p p (- q p) (- q p) (- q p) r r r r r r)) (* a a a (- b a) (- b a) (- b a) p p p p r r (- s r) (- s r)) (* a a a (- b a) (- b a) (- b a) p p (- q p) (- q p) (- q p) (- q p) r r r r r (- s r) (- s r)) (* a a a (- b a) (- b a) (- b a) p p p q00 r r r00 (- s r)) (* a a a (- b a) (- b a) (- b a) p p p00 (- q p) (- q p) (- q p) r r r r (- s r) (- s r) s00)) (* a a (- b a) (- b a) (- b a) p p00 (- q p) (- q p) (- q p) (- q p) r (- s r) (- s r) (- s r) (- s r) (- s r) s00)) (* a a a (- b a) (- b a) (- b a) (- b a) p p (- q p) (- q p) (- q p) (- q p) r r r r r (- s r) (- s r))) (* a (- b a) (- b a) (- b a) (- b a) (- b a) p p p (- q p) (- q p) (- q p) q00 r r r00 (- s r) (- s r) (- s r)) (* a a a (- b a) (- b a) (- b a) p p p p00 r r (- s r) s00) (* a a (- b a) (- b a) p p00 (- q p) (- q p) (- q p) (- q p) r (- s r) (- s r) (- s r) (- s r) (- s r) s00)) (* a (- b a) (- b a) (- b a) (- b a) (- b a) p p p (- q p) (- q p) (- q p) (- q p) r r r (- s r) (- s r) (- s r))) (* a a a (- b a) (- b a) (- b a) p p p (- q p) r r r (- s r)) (* a a a a p p (- q p) r (- s r) (- s r) (- s r) (- s r)) (* a a (- b a) (- b a) (- b a) p (- q p) (- q p) (- q p) (- q p) (- q p) r r (- s r) (- s r) (- s r) (- s r) (- s r))) (* a a (- b a) (- b a) (- b a) (- b a) (- b a) (- b a) p p p p p (- q p) (- q p) r r r r r (- s r)) (* a a a (- b a) (- b a) (- b a) (- b a) p p p00 (- q p) (- q p) (- q p) r r r r (- s r) (- s r) s00)) (* a a a a p (- q p) q00 r r00 (- s r) (- s r) (- s r))) (* a a (- b a) (- b a) p p (- q p) (- q p) (- q p) (- q p) r (- s r) (- s r) (- s r) (- s r) (- s r) (- s r)) (* a a a a (- b a) p (- q p) (- q p) r r (- s r) (- s r) (- s r))) (* a a a a (- b a) p (- q p) q00 r r00 (- s r) (- s r) (- s r)) (* a a a a (- b a) p p (- q p) r (- s r) (- s r) (- s r) (- s r))) (* a a a a p p00 (- q p) r (- s r) (- s r) (- s r) s00)) (* a a a (- b a) (- b a) (- b a) p p (- q p) (- q p) (- q p) q00 r r r r r00 (- s r) (- s r))) 0))
			)
		)
	)
)
(check-sat)
(get-proof)
(exit)
